KO/tsp/tsp.mps
NAME 
ROWS
 N  OBJ
 E  sum_i_0 
 E  sum_i_1 
 E  sum_i_2 
 E  sum_i_3 
 E  sum_i_4 
 E  sum_i_5 
 E  sum_i_6 
 E  sum_i_7 
 E  sum_i_8 
 E  sum_j_0 
 E  sum_j_1 
 E  sum_j_2 
 E  sum_j_3 
 E  sum_j_4 
 E  sum_j_5 
 E  sum_j_6 
 E  sum_j_7 
 E  sum_j_8 
COLUMNS
    MARKER    'MARKER'                 'INTORG'
    x[0,1]    sum_i_0   1
    x[0,1]    sum_j_1   1
    x[0,2]    sum_i_0   1
    x[0,2]    sum_j_2   1
    x[0,3]    sum_i_0   1
    x[0,3]    sum_j_3   1
    x[0,4]    sum_i_0   1
    x[0,4]    sum_j_4   1
    x[0,5]    sum_i_0   1
    x[0,5]    sum_j_5   1
    x[0,6]    sum_i_0   1
    x[0,6]    sum_j_6   1
    x[0,7]    sum_i_0   1
    x[0,7]    sum_j_7   1
    x[0,8]    sum_i_0   1
    x[0,8]    sum_j_8   1
    x[1,0]    sum_i_1   1
    x[1,0]    sum_j_0   1
    x[1,2]    sum_i_1   1
    x[1,2]    sum_j_2   1
    x[1,3]    sum_i_1   1
    x[1,3]    sum_j_3   1
    x[1,4]    sum_i_1   1
    x[1,4]    sum_j_4   1
    x[1,5]    sum_i_1   1
    x[1,5]    sum_j_5   1
    x[1,6]    sum_i_1   1
    x[1,6]    sum_j_6   1
    x[1,7]    sum_i_1   1
    x[1,7]    sum_j_7   1
    x[1,8]    sum_i_1   1
    x[1,8]    sum_j_8   1
    x[2,0]    sum_i_2   1
    x[2,0]    sum_j_0   1
    x[2,1]    sum_i_2   1
    x[2,1]    sum_j_1   1
    x[2,3]    sum_i_2   1
    x[2,3]    sum_j_3   1
    x[2,4]    sum_i_2   1
    x[2,4]    sum_j_4   1
    x[2,5]    sum_i_2   1
    x[2,5]    sum_j_5   1
    x[2,6]    sum_i_2   1
    x[2,6]    sum_j_6   1
    x[2,7]    sum_i_2   1
    x[2,7]    sum_j_7   1
    x[2,8]    sum_i_2   1
    x[2,8]    sum_j_8   1
    x[3,0]    sum_i_3   1
    x[3,0]    sum_j_0   1
    x[3,1]    sum_i_3   1
    x[3,1]    sum_j_1   1
    x[3,2]    sum_i_3   1
    x[3,2]    sum_j_2   1
    x[3,4]    sum_i_3   1
    x[3,4]    sum_j_4   1
    x[3,5]    sum_i_3   1
    x[3,5]    sum_j_5   1
    x[3,6]    sum_i_3   1
    x[3,6]    sum_j_6   1
    x[3,7]    sum_i_3   1
    x[3,7]    sum_j_7   1
    x[3,8]    sum_i_3   1
    x[3,8]    sum_j_8   1
    x[4,0]    sum_i_4   1
    x[4,0]    sum_j_0   1
    x[4,1]    sum_i_4   1
    x[4,1]    sum_j_1   1
    x[4,2]    sum_i_4   1
    x[4,2]    sum_j_2   1
    x[4,3]    sum_i_4   1
    x[4,3]    sum_j_3   1
    x[4,5]    sum_i_4   1
    x[4,5]    sum_j_5   1
    x[4,6]    sum_i_4   1
    x[4,6]    sum_j_6   1
    x[4,7]    sum_i_4   1
    x[4,7]    sum_j_7   1
    x[4,8]    sum_i_4   1
    x[4,8]    sum_j_8   1
    x[5,0]    sum_i_5   1
    x[5,0]    sum_j_0   1
    x[5,1]    sum_i_5   1
    x[5,1]    sum_j_1   1
    x[5,2]    sum_i_5   1
    x[5,2]    sum_j_2   1
    x[5,3]    sum_i_5   1
    x[5,3]    sum_j_3   1
    x[5,4]    sum_i_5   1
    x[5,4]    sum_j_4   1
    x[5,6]    sum_i_5   1
    x[5,6]    sum_j_6   1
    x[5,7]    sum_i_5   1
    x[5,7]    sum_j_7   1
    x[5,8]    sum_i_5   1
    x[5,8]    sum_j_8   1
    x[6,0]    sum_i_6   1
    x[6,0]    sum_j_0   1
    x[6,1]    sum_i_6   1
    x[6,1]    sum_j_1   1
    x[6,2]    sum_i_6   1
    x[6,2]    sum_j_2   1
    x[6,3]    sum_i_6   1
    x[6,3]    sum_j_3   1
    x[6,4]    sum_i_6   1
    x[6,4]    sum_j_4   1
    x[6,5]    sum_i_6   1
    x[6,5]    sum_j_5   1
    x[6,7]    sum_i_6   1
    x[6,7]    sum_j_7   1
    x[6,8]    sum_i_6   1
    x[6,8]    sum_j_8   1
    x[7,0]    sum_i_7   1
    x[7,0]    sum_j_0   1
    x[7,1]    sum_i_7   1
    x[7,1]    sum_j_1   1
    x[7,2]    sum_i_7   1
    x[7,2]    sum_j_2   1
    x[7,3]    sum_i_7   1
    x[7,3]    sum_j_3   1
    x[7,4]    sum_i_7   1
    x[7,4]    sum_j_4   1
    x[7,5]    sum_i_7   1
    x[7,5]    sum_j_5   1
    x[7,6]    sum_i_7   1
    x[7,6]    sum_j_6   1
    x[7,8]    sum_i_7   1
    x[7,8]    sum_j_8   1
    x[8,0]    sum_i_8   1
    x[8,0]    sum_j_0   1
    x[8,1]    sum_i_8   1
    x[8,1]    sum_j_1   1
    x[8,2]    sum_i_8   1
    x[8,2]    sum_j_2   1
    x[8,3]    sum_i_8   1
    x[8,3]    sum_j_3   1
    x[8,4]    sum_i_8   1
    x[8,4]    sum_j_4   1
    x[8,5]    sum_i_8   1
    x[8,5]    sum_j_5   1
    x[8,6]    sum_i_8   1
    x[8,6]    sum_j_6   1
    x[8,7]    sum_i_8   1
    x[8,7]    sum_j_7   1
    MARKER    'MARKER'                 'INTEND'
RHS
    RHS1      OBJ       -274566
    RHS1      sum_i_0   1
    RHS1      sum_i_1   1
    RHS1      sum_i_2   1
    RHS1      sum_i_3   1
    RHS1      sum_i_4   1
    RHS1      sum_i_5   1
    RHS1      sum_i_6   1
    RHS1      sum_i_7   1
    RHS1      sum_i_8   1
    RHS1      sum_j_0   1
    RHS1      sum_j_1   1
    RHS1      sum_j_2   1
    RHS1      sum_j_3   1
    RHS1      sum_j_4   1
    RHS1      sum_j_5   1
    RHS1      sum_j_6   1
    RHS1      sum_j_7   1
    RHS1      sum_j_8   1
BOUNDS
 BV BND1      x[0,1]  
 BV BND1      x[0,2]  
 BV BND1      x[0,3]  
 BV BND1      x[0,4]  
 BV BND1      x[0,5]  
 BV BND1      x[0,6]  
 BV BND1      x[0,7]  
 BV BND1      x[0,8]  
 BV BND1      x[1,0]  
 BV BND1      x[1,2]  
 BV BND1      x[1,3]  
 BV BND1      x[1,4]  
 BV BND1      x[1,5]  
 BV BND1      x[1,6]  
 BV BND1      x[1,7]  
 BV BND1      x[1,8]  
 BV BND1      x[2,0]  
 BV BND1      x[2,1]  
 BV BND1      x[2,3]  
 BV BND1      x[2,4]  
 BV BND1      x[2,5]  
 BV BND1      x[2,6]  
 BV BND1      x[2,7]  
 BV BND1      x[2,8]  
 BV BND1      x[3,0]  
 BV BND1      x[3,1]  
 BV BND1      x[3,2]  
 BV BND1      x[3,4]  
 BV BND1      x[3,5]  
 BV BND1      x[3,6]  
 BV BND1      x[3,7]  
 BV BND1      x[3,8]  
 BV BND1      x[4,0]  
 BV BND1      x[4,1]  
 BV BND1      x[4,2]  
 BV BND1      x[4,3]  
 BV BND1      x[4,5]  
 BV BND1      x[4,6]  
 BV BND1      x[4,7]  
 BV BND1      x[4,8]  
 BV BND1      x[5,0]  
 BV BND1      x[5,1]  
 BV BND1      x[5,2]  
 BV BND1      x[5,3]  
 BV BND1      x[5,4]  
 BV BND1      x[5,6]  
 BV BND1      x[5,7]  
 BV BND1      x[5,8]  
 BV BND1      x[6,0]  
 BV BND1      x[6,1]  
 BV BND1      x[6,2]  
 BV BND1      x[6,3]  
 BV BND1      x[6,4]  
 BV BND1      x[6,5]  
 BV BND1      x[6,7]  
 BV BND1      x[6,8]  
 BV BND1      x[7,0]  
 BV BND1      x[7,1]  
 BV BND1      x[7,2]  
 BV BND1      x[7,3]  
 BV BND1      x[7,4]  
 BV BND1      x[7,5]  
 BV BND1      x[7,6]  
 BV BND1      x[7,8]  
 BV BND1      x[8,0]  
 BV BND1      x[8,1]  
 BV BND1      x[8,2]  
 BV BND1      x[8,3]  
 BV BND1      x[8,4]  
 BV BND1      x[8,5]  
 BV BND1      x[8,6]  
 BV BND1      x[8,7]  
ENDATA
